NAME /Users/henri/Research/solvers/instances/idol-instances/robust/collection/cbp_Subramanyam_et_al_2020/CapBud_N10_17/models/uncertain_technology_matrix/
ROWS
 N  OBJ
 L  capacity
 L  c_1020
 L  c_1021
 L  c_1022
 L  c_1023
 L  c_1024
 L  c_1025
 L  c_1026
 L  c_1027
 L  c_1028
 L  c_1029
COLUMNS
    MARKER    'MARKER'                 'INTORG'
    x_0        OBJ        -2.52717
    x_0        c_1020     1
    x_0        capacity   0.505435
    x_1        OBJ        -5.48473
    x_1        c_1021     1
    x_1        capacity   1.09695
    x_2        OBJ        -9.38015
    x_2        c_1022     1
    x_2        capacity   1.87603
    x_3        OBJ        -1.19928
    x_3        c_1023     1
    x_3        capacity   0.239856
    x_4        OBJ        -7.72062
    x_4        c_1024     1
    x_4        capacity   1.54412
    x_5        OBJ        -7.37601
    x_5        c_1025     1
    x_5        capacity   1.4752
    x_6        OBJ        -8.50776
    x_6        c_1026     1
    x_6        capacity   1.70155
    x_7        OBJ        -8.892
    x_7        c_1027     1
    x_7        capacity   1.7784
    x_8        OBJ        -8.83425
    x_8        c_1028     1
    x_8        capacity   1.76685
    x_9        OBJ        -9.00916
    x_9        c_1029     1
    x_9        capacity   1.80183
    y_0        OBJ        -2.02174
    y_0        c_1020     1
    y_0        capacity   0.505435
    y_1        OBJ        -4.38778
    y_1        c_1021     1
    y_1        capacity   1.09695
    y_2        OBJ        -7.50412
    y_2        c_1022     1
    y_2        capacity   1.87603
    y_3        OBJ        -0.959423
    y_3        c_1023     1
    y_3        capacity   0.239856
    y_4        OBJ        -6.1765
    y_4        c_1024     1
    y_4        capacity   1.54412
    y_5        OBJ        -5.9008
    y_5        c_1025     1
    y_5        capacity   1.4752
    y_6        OBJ        -6.80621
    y_6        c_1026     1
    y_6        capacity   1.70155
    y_7        OBJ        -7.1136
    y_7        c_1027     1
    y_7        capacity   1.7784
    y_8        OBJ        -7.0674
    y_8        c_1028     1
    y_8        capacity   1.76685
    y_9        OBJ        -7.20733
    y_9        c_1029     1
    y_9        capacity   1.80183
    MARKER    'MARKER'                 'INTEND'
RHS
    RHS       capacity   34.4656
    RHS       c_1020     1
    RHS       c_1021     1
    RHS       c_1022     1
    RHS       c_1023     1
    RHS       c_1024     1
    RHS       c_1025     1
    RHS       c_1026     1
    RHS       c_1027     1
    RHS       c_1028     1
    RHS       c_1029     1
BOUNDS
 LI BND       x_0        0
 UI BND       x_0        1
 LI BND       x_1        0
 UI BND       x_1        1
 LI BND       x_2        0
 UI BND       x_2        1
 LI BND       x_3        0
 UI BND       x_3        1
 LI BND       x_4        0
 UI BND       x_4        1
 LI BND       x_5        0
 UI BND       x_5        1
 LI BND       x_6        0
 UI BND       x_6        1
 LI BND       x_7        0
 UI BND       x_7        1
 LI BND       x_8        0
 UI BND       x_8        1
 LI BND       x_9        0
 UI BND       x_9        1
 LI BND       y_0        0
 UI BND       y_0        1
 LI BND       y_1        0
 UI BND       y_1        1
 LI BND       y_2        0
 UI BND       y_2        1
 LI BND       y_3        0
 UI BND       y_3        1
 LI BND       y_4        0
 UI BND       y_4        1
 LI BND       y_5        0
 UI BND       y_5        1
 LI BND       y_6        0
 UI BND       y_6        1
 LI BND       y_7        0
 UI BND       y_7        1
 LI BND       y_8        0
 UI BND       y_8        1
 LI BND       y_9        0
 UI BND       y_9        1
ENDATA
